edges = [{1, 19}, {2, 20}, {3, 4}, {3, 4, 5, 22}, {4, 5, 6, 23}, {24, 5, 6, 7}, {8, 25, 6, 7}, {8, 9, 7}, {8, 9, 10, 26}, {27, 9, 10, 11}, {10, 11, 12, 28}, {29, 11, 12, 13}, {12, 13, 14, 30}, {31, 13, 14, 15}, {16, 32, 14, 15}, {16, 17, 33, 15}, {16, 17, 18, 34}, {17, 18, 35}, {1, 19, 36}, {2, 37, 20, 21}, {20, 21, 38}, {40, 4, 22, 23}, {5, 41, 22, 23, 24}, {6, 42, 23, 24, 25}, {24, 25, 43, 7}, {9, 26, 27, 45}, {26, 10, 27, 28}, {11, 46, 27, 28, 29}, {12, 47, 28, 29, 30}, {13, 48, 29, 30, 31}, {32, 14, 49, 30, 31}, {32, 33, 15, 50, 31}, {32, 33, 34, 16, 51}, {33, 34, 35, 17, 52}, {18, 35, 34, 53}, {19, 36, 54}, {20, 37, 38}, {37, 38, 39, 21, 56}, {40, 57, 38, 39}, {39, 40, 41, 22, 58}, {40, 41, 42, 23}, {24, 41, 42, 43}, {42, 43, 44, 25, 59}, {43, 44, 45, 60}, {26, 61, 44, 45}, {28, 63, 46, 47}, {64, 46, 47, 48, 29}, {48, 49, 30, 47}, {65, 48, 49, 50, 31}, {32, 66, 49, 50, 51}, {33, 50, 51, 52}, {34, 51, 52, 53}, {35, 52, 53}, {67, 36, 54, 55}, {68, 54, 55}, {56, 57, 38}, {70, 39, 56, 57, 58}, {40, 57, 58, 71}, {73, 43, 59, 60}, {59, 60, 61, 44}, {74, 45, 60, 61, 62}, {75, 61, 62, 63}, {64, 76, 46, 62, 63}, {64, 63, 47}, {65, 66, 49}, {65, 66, 50, 78}, {80, 67, 68, 54}, {67, 68, 69, 81, 55}, {82, 68, 69}, {57, 83, 70, 71}, {58, 84, 70, 71}, {72, 73, 86}, {72, 73, 59, 87}, {88, 74, 75, 61}, {74, 75, 76, 62}, {89, 75, 76, 63}, {91, 77}, {66, 93, 78}, {96, 79}, {80, 81, 67}, {80, 81, 82, 68}, {81, 82, 69, 97}, {98, 83, 84, 70}, {99, 71, 83, 84, 85}, {100, 84, 85, 86}, {101, 72, 85, 86, 87}, {73, 102, 86, 87}, {88, 74, 104}, {89, 90, 76}, {89, 90, 91, 106}, {107, 77, 90, 91, 92}, {108, 91, 92, 93}, {109, 78, 92, 93, 94}, {110, 93, 94, 95}, {96, 94, 95}, {96, 111, 95, 79}, {97, 82, 113}, {99, 115, 98, 83}, {100, 98, 99, 84}, {101, 99, 100, 85}, {100, 101, 102, 116, 86}, {101, 102, 103, 117, 87}, {104, 102, 103}, {103, 104, 105, 118, 88}, {104, 105, 119}, {121, 106, 107, 90}, {91, 107, 108, 106}, {107, 108, 109, 122, 92}, {108, 109, 110, 123, 93}, {94, 124, 109, 110}, {96, 126, 111}, {113}, {128, 113, 114, 97}, {129, 113, 114, 115}, {98, 115, 114, 130}, {132, 117, 116, 101}, {116, 117, 102, 133}, {104, 134, 118, 119}, {135, 105, 118, 119, 120}, {120, 121, 136, 119}, {120, 121, 106}, {122, 123, 108, 138}, {139, 109, 122, 123, 124}, {140, 110, 123, 124, 125}, {124, 125, 126, 141}, {125, 126, 111}, {128, 143, 127}, {128, 113, 129, 127}, {128, 129, 114, 130}, {129, 130, 115, 131}, {144, 130, 131}, {116, 146, 132, 133}, {117, 147, 132, 133}, {118, 149, 134, 135}, {134, 135, 136, 150, 119}, {136, 151, 120, 135}, {137, 138, 153}, {137, 138, 139, 122}, {123, 138, 139, 140}, {139, 140, 141, 154, 124}, {125, 155, 140, 141}, {157, 142, 143}, {158, 127, 142, 143}, {144, 145, 131, 161}, {144, 145, 146}, {162, 132, 145, 146, 147}, {163, 133, 146, 147, 148}, {164, 147, 148, 149}, {150, 148, 149, 134}, {165, 135, 149, 150, 151}, {166, 136, 150, 151, 152}, {152, 153, 167, 151}, {152, 153, 137, 168}, {170, 154, 155, 140}, {171, 141, 154, 155, 156}, {172, 155, 156}, {158, 157, 142, 173}, {174, 143, 157, 158, 159}, {175, 158, 159}, {160, 161, 177}, {144, 161, 160}, {162, 163, 179, 146}, {164, 162, 163, 147}, {148, 163, 164}, {166, 165, 150, 181}, {165, 166, 167, 182, 151}, {166, 167, 168, 183, 152}, {167, 168, 169, 184, 153}, {168, 169, 185}, {186, 170, 171, 154}, {172, 170, 171, 155}, {156, 171, 172}, {187, 174, 173, 157}, {158, 173, 174, 175}, {174, 175, 176, 188, 159}, {176, 177, 189, 175}, {160, 177, 190, 176}, {178, 179, 191}, {178, 162, 179, 192}, {180, 181}, {195, 165, 180, 181, 182}, {196, 166, 181, 182, 183}, {197, 167, 182, 183, 184}, {184, 185, 168, 183}, {184, 185, 169, 198}, {170, 186, 199}, {187, 173}, {203, 188, 189, 175}, {204, 176, 188, 189, 190}, {205, 177, 189, 190}, {192, 178, 207, 191}, {192, 193, 208, 179, 191}, {192, 193, 194, 209}, {193, 194, 210}, {212, 195, 196, 181}, {195, 196, 197, 182}, {196, 197, 183}, {185, 214, 198}, {200, 186, 199}, {200, 201, 216, 199}, {200, 201, 217}, {202, 203, 219}, {202, 203, 204, 188, 220}, {203, 204, 205, 189, 221}, {204, 205, 206, 190, 222}, {223, 205, 206, 207}, {208, 191, 206, 207}, {224, 192, 207, 208, 209}, {193, 225, 208, 209, 210}, {226, 194, 209, 210, 211}, {210, 211, 212, 227}, {195, 212, 228, 211}, {213, 214, 230}, {213, 198, 214, 215}, {231, 214, 215}, {216, 217, 233, 200}, {216, 217, 234, 201}, {218, 219}, {218, 202, 219, 220}, {203, 235, 219, 220, 221}, {236, 204, 220, 221, 222}, {237, 205, 221, 222, 223}, {238, 222, 206, 223}, {224, 225, 240, 208}, {224, 225, 226, 209, 241}, {210, 226, 227, 225}, {226, 227, 228, 242, 211}, {212, 228, 243, 227}, {229, 230}, {229, 213, 230}, {232, 215, 246, 231}, {232, 233, 231}, {232, 233, 234, 247, 216}, {248, 217, 234, 233}, {235, 220, 236}, {237, 235, 236, 221}, {236, 237, 222, 238}, {239, 237, 238, 223}, {240, 251, 238, 239}, {224, 239, 240, 241, 252}, {240, 241, 225}, {242, 227, 254, 243}, {228, 242, 243, 244, 255}, {256, 243, 244}, {259, 245, 246}, {260, 245, 246, 231}, {248, 233, 261, 247}, {248, 234, 247}, {249, 250, 262}, {249, 250}, {266, 251, 252, 239}, {240, 267, 251, 252}, {269, 253, 254}, {270, 242, 253, 254, 255}, {256, 271, 243, 254, 255}, {256, 257, 272, 244, 255}, {256, 257, 258, 273}, {274, 257, 258, 259}, {258, 259, 260, 275, 245}, {259, 260, 246}, {277, 261, 247}, {249, 262, 279}, {264, 281, 263}, {264, 282, 263}, {265, 266, 283}, {265, 266, 267, 251, 284}, {266, 267, 268, 252, 285}, {267, 268, 269, 286}, {268, 269, 270, 253, 287}, {288, 269, 270, 271, 254}, {289, 270, 271, 272, 255}, {272, 256, 273, 271}, {257, 290, 272, 273, 274}, {275, 273, 274, 258}, {259, 291, 274, 275}, {293, 276, 277}, {261, 294, 276, 277, 278}, {277, 278, 295}, {280, 296, 262, 279}, {280, 281, 297, 279}, {280, 281, 282, 263}, {264, 281, 282, 298}, {265, 283, 284, 300}, {266, 301, 283, 284, 285}, {267, 284, 285, 286}, {268, 302, 285, 286, 287}, {288, 269, 303, 286, 287}, {288, 289, 270, 304, 287}, {288, 289, 305, 271}, {273, 290}, {275, 291, 292, 308}, {309, 291, 292, 293}, {292, 293, 294, 276, 310}, {293, 294, 295, 277, 311}, {294, 312, 278, 295}, {296, 297, 313, 279}, {280, 297, 296, 314}, {299, 298, 282, 315}, {298, 299, 300, 316}, {299, 300, 301, 283, 317}, {284, 301, 300}, {319, 303, 302, 286}, {320, 302, 303, 304, 287}, {288, 321, 303, 304, 305}, {289, 322, 304, 305, 306}, {305, 306, 323}, {307, 308, 325}, {291, 326, 307, 308, 309}, {292, 327, 308, 309, 310}, {293, 328, 309, 310, 311}, {294, 329, 310, 311, 312}, {312, 330, 311, 295}, {296, 313, 314, 331}, {297, 314, 332, 313}, {298, 315, 316, 334}, {299, 335, 315, 316, 317}, {336, 300, 317, 316}, {318, 319}, {320, 302, 338, 318, 319}, {320, 321, 303, 339, 319}, {320, 321, 322, 304, 340}, {321, 322, 323, 305, 341}, {322, 323, 324, 306, 342}, {323, 324, 325, 343}, {324, 325, 326, 307, 344}, {325, 326, 327, 308, 345}, {326, 327, 328, 309, 346}, {327, 328, 329, 310, 347}, {328, 329, 330, 311}, {312, 329, 330, 348}, {313, 331, 332, 349}, {331, 332, 333, 314, 350}, {332, 333, 334, 351}, {352, 333, 334, 335, 315}, {353, 334, 335, 336, 316}, {354, 335, 336, 337, 317}, {336, 337, 355}, {338, 339, 357, 319}, {320, 358, 338, 339, 340}, {321, 339, 340, 341}, {322, 359, 340, 341, 342}, {323, 360, 341, 342, 343}, {344, 324, 342, 343}, {344, 345, 325, 343}, {326, 361, 344, 345, 346}, {327, 362, 345, 346, 347}, {328, 346, 347}, {364, 330, 348}, {365, 331, 349, 350}, {332, 366, 349, 350, 351}, {352, 333, 367, 350, 351}, {352, 353, 334, 368, 351}, {352, 353, 354, 335, 369}, {336, 353, 354, 355}, {354, 355, 356, 337, 370}, {371, 355, 356, 357}, {338, 356, 357, 358}, {339, 372, 357, 358}, {360, 373, 341, 359}, {360, 374, 342, 359}, {345, 361, 362, 377}, {361, 362, 346, 378}, {380, 363, 364}, {363, 364, 381, 348}, {382, 349, 365, 366}, {350, 365, 366, 367}, {351, 366, 367, 368, 383}, {352, 384, 367, 368, 369}, {368, 369, 385, 353}, {371, 370, 355, 387}, {388, 370, 371, 356}, {390, 372, 358}, {392, 373, 374, 359}, {360, 393, 373, 374, 375}, {376, 394, 374, 375}, {376, 377, 395, 375}, {361, 396, 376, 377, 378}, {362, 397, 377, 378, 379}, {378, 379, 380, 398}, {363, 399, 379, 380, 381}, {380, 400, 364, 381}, {365, 382}, {384, 367, 383}, {384, 385, 368, 383}, {384, 385, 386, 369}, {385, 386, 387}, {370, 387, 388, 386}, {371, 388, 387, 389}, {388, 389, 390}, {372, 389, 390, 391}, {392, 390, 391}, {392, 393, 373, 391}, {392, 393, 394, 374}, {393, 394, 395, 375}, {376, 394, 395, 396}, {377, 395, 396, 397}, {378, 396, 397, 398}, {379, 397, 398, 399}, {400, 380, 398, 399}, {400, 381, 399}];
input = [|184, 182|109, 154|306, 358|367, 365|257, 248|129, 117|151, 94|22, 14|149, 102|236, 193|36, 55|214, 164|398, 311|390, 356|142, 187|393, 324|135, 163|326, 269|220, 223|223, 305|195, 168|294, 171|260, 259|230, 215|123, 96|341, 266|105, 118|287, 391|115, 115|370, 368|];
V = 400;
A = 30;
E = 606;

maxTime = 12